p cnf 128 447
1 -2 -3 0
-1 2 -3 0
1 2 3 0
-1 -2 3 0
-3 4 -5 0
3 -4 -5 0
-3 -4 5 0
3 4 5 0
6 4 -7 0
-6 -4 -7 0
6 -4 7 0
-6 4 7 0
9 -7 0
9 8 0
7 -8 -9 0
10 -5 0
10 9 0
5 -9 -10 0
12 -7 -13 0
-12 7 -13 0
12 7 13 0
-12 -7 13 0
13 -14 -15 0
-13 14 -15 0
13 14 15 0
-13 -14 15 0
1 -15 -16 0
-1 15 -16 0
1 15 16 0
-1 -15 16 0
-11 -16 -17 0
11 16 -17 0
-11 16 17 0
11 -16 17 0
-18 -14 0
-18 -15 0
14 15 18 0
19 13 0
19 -18 0
-13 18 -19 0
-20 -17 0
-20 19 0
17 -19 20 0
-10 20 -21 0
10 -20 -21 0
-10 -20 21 0
10 20 21 0
2 22 -23 0
-2 -22 -23 0
2 -22 23 0
-2 22 23 0
23 -14 -24 0
-23 14 -24 0
23 14 24 0
-23 -14 24 0
25 -2 0
25 24 0
2 -24 -25 0
-4 27 -28 0
4 -27 -28 0
-4 -27 28 0
4 27 28 0
-29 28 0
-29 7 0
-28 -7 29 0
26 29 -30 0
-26 -29 -30 0
26 -29 30 0
-26 29 30 0
-22 -27 -31 0
22 27 -31 0
-22 27 31 0
22 -27 31 0
32 -30 0
32 31 0
30 -31 -32 0
-33 9 0
-33 -12 0
-9 12 33 0
34 -32 0
34 -33 0
32 33 -34 0
-35 -12 0
-35 -34 0
12 34 35 0
25 35 -36 0
-25 -35 -36 0
25 -35 36 0
-25 35 36 0
37 -26 0
37 -29 0
26 29 -37 0
39 4 0
39 38 0
-4 -38 -39 0
15 -39 -40 0
-15 39 -40 0
15 39 40 0
-15 -39 40 0
-1 40 -41 0
1 -40 -41 0
-1 -40 41 0
1 40 41 0
-42 37 0
-42 41 0
-37 -41 42 0
-6 -26 -43 0
6 26 -43 0
-6 26 43 0
6 -26 43 0
31 44 -45 0
-31 -44 -45 0
31 -44 45 0
-31 44 45 0
-43 -45 -46 0
43 45 -46 0
-43 45 46 0
43 -45 46 0
-4 -8 -47 0
4 8 -47 0
-4 8 47 0
4 -8 47 0
-48 47 0
-48 38 0
-47 -38 48 0
49 48 0
49 -45 0
-48 45 -49 0
-50 -46 0
-50 49 0
46 -49 50 0
51 -6 0
51 31 0
6 -31 -51 0
-1 -4 -52 0
1 4 -52 0
-1 4 52 0
1 -4 52 0
-53 51 0
-53 52 0
-51 -52 53 0
-54 -53 0
-54 53 0
55 -50 0
55 -54 0
50 54 -55 0
42 -55 -56 0
-42 55 -56 0
42 55 56 0
-42 -55 56 0
57 -18 0
57 -28 0
18 28 -57 0
58 3 0
58 57 0
-3 -57 -58 0
-59 -26 0
-59 40 0
26 -40 59 0
39 -59 -60 0
-39 59 -60 0
39 59 60 0
-39 -59 60 0
-60 -49 -61 0
60 49 -61 0
-60 49 61 0
60 -49 61 0
58 -61 -62 0
-58 61 -62 0
58 61 62 0
-58 -61 62 0
63 -56 0
63 -62 0
56 62 -63 0
-64 36 0
-64 -63 0
-36 63 64 0
-65 22 0
-65 -45 0
-22 45 65 0
66 13 0
66 65 0
-13 -65 -66 0
-66 -9 -67 0
66 9 -67 0
-66 9 67 0
66 -9 67 0
68 39 0
68 -15 0
-39 15 -68 0
68 -69 -70 0
-68 69 -70 0
68 69 70 0
-68 -69 70 0
-71 -67 0
-71 -70 0
67 70 71 0
72 -65 0
72 8 0
65 -8 -72 0
73 -59 -74 0
-73 59 -74 0
73 59 74 0
-73 -59 74 0
29 34 -75 0
-29 -34 -75 0
29 -34 75 0
-29 34 75 0
-39 -46 -76 0
39 46 -76 0
-39 46 76 0
39 -46 76 0
-78 -30 0
-78 77 0
30 -77 78 0
-79 -76 0
-79 78 0
76 -78 79 0
80 -75 0
80 -79 0
75 79 -80 0
77 -39 -81 0
-77 39 -81 0
77 39 81 0
-77 -39 81 0
33 81 -82 0
-33 -81 -82 0
33 -81 82 0
-33 81 82 0
83 31 0
83 8 0
-31 -8 -83 0
83 51 -84 0
-83 -51 -84 0
83 -51 84 0
-83 51 84 0
84 -30 -85 0
-84 30 -85 0
84 30 85 0
-84 -30 85 0
-82 -85 -86 0
82 85 -86 0
-82 85 86 0
82 -85 86 0
80 86 -87 0
-80 -86 -87 0
80 -86 87 0
-80 86 87 0
74 87 -88 0
-74 -87 -88 0
74 -87 88 0
-74 87 88 0
89 -47 0
89 77 0
47 -77 -89 0
90 89 0
90 -77 0
-89 77 -90 0
91 -6 0
91 24 0
6 -24 -91 0
-51 91 -92 0
51 -91 -92 0
-51 -91 92 0
51 91 92 0
-93 -23 0
-93 -92 0
23 92 93 0
94 -90 0
94 -93 0
90 93 -94 0
-69 -66 -95 0
69 66 -95 0
-69 66 95 0
69 -66 95 0
96 94 0
96 -95 0
-94 95 -96 0
-88 96 -97 0
88 -96 -97 0
-88 -96 97 0
88 96 97 0
3 -92 -98 0
-3 92 -98 0
3 92 98 0
-3 -92 98 0
97 -98 -99 0
-97 98 -99 0
97 98 99 0
-97 -98 99 0
100 -5 0
100 15 0
5 -15 -100 0
-101 -99 0
-101 100 0
99 -100 101 0
-102 47 0
-102 -1 0
-47 1 102 0
44 -102 -103 0
-44 102 -103 0
44 102 103 0
-44 -102 103 0
104 53 0
104 -33 0
-53 33 -104 0
105 -103 0
105 104 0
103 -104 -105 0
-101 105 -106 0
101 -105 -106 0
-101 -105 106 0
101 105 106 0
-107 -72 0
-107 106 0
72 -106 107 0
108 -71 0
108 107 0
71 -107 -108 0
-109 64 0
-109 -108 0
-64 108 109 0
-110 -84 0
-110 -12 0
84 12 110 0
-110 77 -111 0
110 -77 -111 0
-110 -77 111 0
110 77 111 0
112 109 0
112 111 0
-109 -111 -112 0
113 -21 0
113 -112 0
21 112 -113 0
114 76 0
114 65 0
-76 -65 -114 0
-115 -5 0
-115 18 0
5 -18 115 0
-115 78 -116 0
115 -78 -116 0
-115 -78 116 0
115 78 116 0
-114 -116 -117 0
114 116 -117 0
-114 116 117 0
114 -116 117 0
118 -49 0
118 14 0
49 -14 -118 0
11 4 -119 0
-11 -4 -119 0
11 -4 119 0
-11 4 119 0
15 2 -120 0
-15 -2 -120 0
15 -2 120 0
-15 2 120 0
-119 120 -121 0
119 -120 -121 0
-119 -120 121 0
119 120 121 0
13 -1 -122 0
-13 1 -122 0
13 1 122 0
-13 -1 122 0
-123 -9 0
-123 -28 0
9 28 123 0
-124 -122 0
-124 -123 0
122 123 124 0
-125 -121 0
-125 -124 0
121 124 125 0
-118 -125 -126 0
118 125 -126 0
-118 125 126 0
118 -125 126 0
-117 -126 -127 0
117 126 -127 0
-117 126 127 0
117 -126 127 0
128 -113 0
128 127 0
113 -127 -128 0
-123 114 20 25 -53 -31 0
-71 118 -61 86 22 -31 0
67 -103 43 -76 -101 0
6 16 -120 56 -32 -71 0
-76 -28 0
17 -48 -119 19 113 0
65 -24 0
126 -121 -63 -111 127 0
-42 -100 -12 -73 0
-41 35 -68 76 102 0
30 113 -62 127 117 110 0
66 -48 0
71 -10 -12 -97 -29 70 0
-84 -37 101 0
-108 69 5 0
-85 8 0
-1 -100 30 -70 91 0
6 -18 -49 0
126 55 -36 108 0
6 -17 -59 -55 74 0
15 -73 94 0
-106 -44 103 92 -125 0
-85 -34 -74 -104 126 36 0
112 -41 -18 -82 0
-19 -32 -27 -100 -79 -6 0
125 9 0
-94 -119 23 28 -74 0
117 -119 65 0
91 102 93 -69 -44 7 0
-97 -85 37 0
-70 -120 0
-71 -78 12 0
7 -24 0
99 -65 -114 -96 0
96 -93 65 0
-108 109 77 6 0
-20 117 -110 -9 0
15 -10 24 0
99 63 50 0
-108 16 113 -124 52 0
111 -95 0
66 93 112 53 0
21 -28 -80 -83 0
10 -68 -25 0
125 -101 -84 127 17 -68 0
-59 105 0
34 111 37 -65 -57 0
30 -110 0
8 -10 0
29 84 -118 107 0
-125 -89 -13 -121 0
-18 116 0
-51 92 -106 0
-54 26 0
3 40 -106 0
-80 108 -30 17 -128 0
-11 89 88 0
19 -67 -65 -121 0
128 0
